(set-logic QF_S)
(set-option :strings-exp true)
(set-option :produce-models true)
(declare-fun sigmaStar_4 () String)
(declare-fun sigmaStar_6 () String)
(declare-fun sigmaStar_7 () String)
(declare-fun literal_8 () String)
(declare-fun x_9 () String)
(declare-fun literal_5 () String)
(declare-fun x_10 () String)
(assert (= literal_8 "\x2f"))
(assert (= x_9 (str.++ sigmaStar_6 literal_8)))
(assert (= literal_5 ""))
(assert (= x_10 (str.++ x_9 literal_5)))
(assert (str.in.re x_10 (re.++ (re.* re.allchar) (re.++ (str.to.re "\x2f\x65\x76\x69\x6c") (re.* re.allchar)))))
(check-sat)
(get-model)
